% From JaCoP's nonogramRepository/data064.nin
 rows = 20;
 row_rule_len = 5;
 row_rules = array2d(1..rows, 1..row_rule_len, 
[
 0,0,0,0,5,
 0,0,0,0,8,
 0,0,3,4,2,
 0,0,2,5,4,
 0,0,2,8,1,
 0,0,2,4,9,
 0,0,2,6,10,
 2,1,2,1,9,
 0,1,2,2,6,
 0,1,2,1,5,
 0,0,2,5,4,
 0,0,3,7,1,
 0,0,5,1,7,
 0,0,0,11,6,
 0,0,0,3,6,
 0,0,0,0,3,
 0,0,0,3,7,
 0,0,0,3,9,
 0,0,0,8,2,
 0,0,0,6,2
]);

 cols = 25;
 col_rule_len = 5;
 col_rules = array2d(1..cols, 1..col_rule_len, 
[
 0,0,0,0,4,
 0,0,0,0,12,
 0,0,0,3,9,
 0,0,2,3,3,
 0,0,2,2,2,
 0,2,2,2,2,
 0,2,2,2,2,
 0,3,2,4,2,
 2,2,2,2,3,
 0,2,7,2,3,
 0,2,6,2,2,
 0,3,2,1,2,
 0,0,2,5,2,
 0,3,2,2,2,
 0,3,2,2,2,
 0,0,2,8,2,
 0,0,8,2,2,
 0,0,9,2,2,
 0,1,6,2,1,
 0,0,0,6,1,
 0,0,0,0,6,
 0,0,0,0,5,
 0,0,0,1,3,
 0,0,0,0,4,
 0,0,0,0,2
]);

